/*********************************************
 * OPL 12.6.0.0 Data
 * Author: Adrian Rodriguez Bazaga, Pau Rodriguez Esmerats
 * Creation Date: 06/12/2017 at 23:02:59
 *********************************************/

nNurses=176;
maxConsec=2;
maxPresence=7;
maxHours=5;
minHours=1;
hours=24;
demand= [30 28 52 48 28 52 48 28 35 19 2 1 4 1 4 1 3 0 2 0 19 50 31 37  ];
